74 90 
23 18 
59 69 
87 57 
94 74 
98 34 
91 35 
38 87 
21 83 
17 58 
60 19 
90 76 
4 40 
57 54 
65 79 
15 39 
21 90 
10 80 
60 97 
89 6 
71 87 
41 14 
74 31 
1 95 
15 19 
54 27 
90 44 
3 47 
36 60 
1 2 
40 17 
93 13 
59 3 
46 71 
0 87 
78 23 
27 71 
37 1 
2 91 
97 69 
62 3 
96 52 
47 0 
99 35 
60 1 
89 52 
70 83 
18 81 
86 64 
53 39 
